(set-logic QF_S)
(declare-fun var0 () String)
(declare-fun var1 () Int)
(declare-fun var2 () String)
(declare-fun var3 () String)
(declare-fun var4 () String)
(declare-fun var5 () Int)
(declare-fun var6 () Int)
(declare-fun var7 () Int)
(assert (str.in.re (str.at var0 var1) (re.+ re.allchar)))
(assert (str.contains var2 var3))
(assert (str.in.re var4 re.allchar))
(assert (str.contains (str.substr var3 var5 var6) (str.substr "`l|P[L}t,:" var7 var5)))
(check-sat)